RAW/XH/fspd/X-n162-k11.vrp_seed-2.out
11298	18.569	34.953
