RAW/XH/fspd/X-n162-k11.vrp_seed-2.sol
Route #1: 59 155 92 125 108 137 39 146 151 101 87 4 131 57 32 16 5 120 158 81 74 91 136 152 45 50
Route #2: 80 53 86 154 99 130 58 68 48 11 38 73 49 6 37 71 13 24 23 26 28 145 90 150
Route #3: 47 41 61 78 79 20 67 62 114 102 95 129 96 88 142 43 123 56 66 94 36 35 100 106 31 140 111 116 52
Route #4: 15 29 10 105 139 126 138 133 107 122 84 143 85 121 147 159 118 30 40 157 112 132 93 103 115 156
Route #5: 25 98 161 77 104 83 63 113 70 65 12 64 18 19 22 34 7 44 75 33 3 51 42 69 46 76 8 54
Route #6: 127 17 149 89 14 97 117 27 9 21 1 55 60 2 82 109 148 134 124 128 110 153 160 144 119 135 141 72
Cost 11298.000000